5 5
0 40 4 9 3 42 1 42 2 33
1 25 2 78 4 9 3 91 0 44
2 83 4 58 3 25 1 32 0 22
2 93 1 55 3 92 4 61 0 57
2 77 1 61 0 92 4 67 3 94
-1
0 2 5
0 2 3 4 5
0 1 2 5
0 2 5
0 4 5
-2
63 183
154 114 290 260
132 153 288
190 466
370 407

531 10
0 22 9 14 19
5 21 3 16 13
20 6 15 10 4
2 8 17 12 24
1 7 23 11 18
